p cnf 12 22
c Encoding of pigeonhole problem for 3 holes and 4 pigeons
c Pigeon 1 ALO
1 5 9 0
c Pigeon 2 ALO
2 6 10 0
c Pigeon 3 ALO
3 7 11 0
c Pigeon 4 ALO
4 8 12 0
c Hole 1 AMO
-1 -2 0
-1 -3 0
-1 -4 0
-2 -3 0
-2 -4 0
-3 -4 0
c Hole 2 AMO
-5 -6 0
-5 -7 0
-5 -8 0
-6 -7 0
-6 -8 0
-7 -8 0
c Hole 3 AMO
-9 -10 0
-9 -11 0
-9 -12 0
-10 -11 0
-10 -12 0
-11 -12 0
